10J3M/DAT/10J3MUNL-6.dat
10 3
32.8618 32.8618
3.3337 3.3337
15.2525 15.2525
18.1418 18.1418
45.5104 45.5104
21.7318 21.7318
49.4131 49.4131
21.199 21.199
5.5463 5.5463
0.6386 0.6386
213.629