10J3M/SOL/10J3MUNL-6.sol
solution status: optimal solution found
objective value:                     54.7114333333333
x#1#1                                               1 	(obj:0)
x#2#3                                               1 	(obj:0)
x#3#2                                               1 	(obj:0)
x#4#1                                               1 	(obj:0)
x#5#2                                               1 	(obj:0)
x#6#1                               0.601805024047455 	(obj:0)
x#6#3                               0.398194975952545 	(obj:0)
x#7#2                               0.677560235999868 	(obj:0)
x#7#3                               0.322439764000132 	(obj:0)
x#8#2                                               1 	(obj:0)
x#9#2                                               1 	(obj:0)
x#10#1                                              1 	(obj:0)
z                                    54.7114333333333 	(obj:1)
